n_res = 4;
rcap = [17, 29, 81, 89];
rtype = [1, 1, 2, 2];
n_tasks = 18;
modes = [ {1, 2, 3}, {4, 5, 6}, {7, 8, 9}, {10, 11, 12}, {13, 14, 15}, {16, 17, 18}, {19, 20, 21}, {22, 23, 24}, {25, 26, 27}, {28, 29, 30}, {31, 32, 33}, {34, 35, 36}, {37, 38, 39}, {40, 41, 42}, {43, 44, 45}, {46, 47, 48}, {49, 50, 51}, {52, 53, 54} ];
succ = [ {4, 9, 14}, {5, 7, 10}, {14, 15}, {6}, {8, 18}, {11, 16}, {12, 13}, {12, 15, 16}, {11, 12}, {13, 14, 16}, {13, 15}, {17}, {18}, {17, 18}, {17}, {}, {}, {} ];
n_opt = 54;
dur = [1, 6, 9, 1, 7, 9, 6, 8, 8, 1, 8, 8, 3, 4, 5, 1, 2, 4, 2, 5, 7, 4, 4, 7, 5, 6, 9, 3, 4, 6, 4, 6, 10, 3, 4, 7, 7, 8, 9, 3, 5, 5, 4, 6, 10, 3, 3, 7, 2, 5, 7, 3, 3, 4];
rreq = [|  0,  0,  3,  0,  0,  0,  6,  1,  0,  0,  0,  2,  0,  0,  0,  0, 10,  1,  9,  8,  0,  0,  7,  0,  8,  6,  5,  0,  3,  0,  9,  9,  0,  0,  0,  0,  0,  5,  5,  0,  0,  7,  6,  0,  6,  0,  0,  0,  0,  9,  5,  0,  8,  0
        |  9,  8,  0,  9,  9,  9,  0,  0,  3,  7,  6,  0,  9,  8,  6,  5,  0,  0,  0,  0,  8,  6,  0,  6,  0,  0,  0,  8,  0,  7,  0,  0,  6,  9,  5,  4,  3,  0,  0,  4,  1,  0,  0,  5,  0,  9,  5,  3, 10,  0,  0,  6,  0,  6
        |  0,  0,  6,  0,  7,  5,  5,  5,  3,  0,  3,  0,  0,  9,  0,  9,  8,  7,  4,  0,  3,  0,  0,  6,  0,  0,  4,  7,  7,  0,  0,  0,  0,  0,  9,  8,  8,  0,  3,  0,  6,  5,  0,  0,  3,  0,  3,  1,  0,  9,  5,  7,  0,  0
        |  8,  7,  0,  5,  0,  0,  0,  0,  0,  9,  0,  9,  7,  0,  5,  0,  0,  0,  0,  8,  0,  4,  8,  0, 10, 10,  0,  0,  0,  9,  4,  3,  3,  7,  0,  0,  0,  9,  0,  9,  0,  0,  6,  3,  0,  6,  0,  0,  3,  0,  0,  0, 10, 10 |];
